(set-logic ALL)
(declare-const a Bool)
(declare-const b Bool)
(declare-const c Bool)
(declare-const d Bool)
(declare-const k Int)
(assert (= b true))
(assert (= b false))
(assert (= a false))
(assert (= c true))
(assert (= (+ k 1) k))

(check-sat)